c A SAT instance generated from a 3-CNF formula that had 24 clauses and 8 variables
p cnf 8 24
3 5 -8 0
3 -7 8 0
-1 -7 6 0
-2 -4 -5 0
6 -2 7 0
8 -3 -7 0
5 8 -4 0
-1 2 6 0
-5 -8 -2 0
-1 -8 4 0
6 -2 -8 0
-4 6 -5 0
-7 -1 5 0
-6 7 -4 0
-8 1 -4 0
7 -1 4 0
-2 -7 8 0
-3 -7 -6 0
5 -8 7 0
2 -6 -3 0
8 -1 2 0
-3 4 -2 0
7 -6 -5 0
6 -5 -4 0
